NAME : amz1444.3141179_136679.tour
COMMENT : Cost = 3141179_136679
COMMENT : Found by LKH-AMZ [Keld Helsgaun] Sun May 11 13:13:23 2025
COMMENT : TW viol.: 0 #: 0
TYPE : TOUR
DIMENSION : 115
TOUR_SECTION
86
69
53
102
104
40
12
59
109
27
92
107
70
22
64
71
2
103
34
44
10
19
89
97
48
60
72
98
112
28
80
51
79
36
13
67
32
30
43
18
61
81
88
21
87
23
111
94
37
90
9
11
76
42
15
101
58
3
33
66
31
55
41
56
114
47
54
73
49
77
100
74
113
91
95
16
68
35
46
7
82
52
29
108
57
25
24
65
26
1
115
63
75
84
20
17
5
99
50
38
83
106
96
39
110
85
45
105
93
6
78
4
62
8
14
-1
EOF
